\ENCODING=ISO-8859-1
\Problem name: ilog.cplex

Minimize
 obj1: 94 x41 + 5 x42 + 72 x43 + 12 x44 + 69 x45 + 57 x46 + 45 x47 + 66 x48
       + 88 x49 + 48 x50 + 83 x51 + 80 x52 + 32 x53 + 58 x54 + 41 x55 + 63 x56
       + 45 x57 + 32 x58 + 94 x59 + 5 x60 + 72 x61 + 12 x62 + 69 x63 + 57 x64
       + 45 x65 + 66 x66 + 88 x67 + 48 x68 + 83 x69 + 80 x70 + 32 x71 + 58 x72
       + 41 x73 + 63 x74 + 45 x75 + 32 x76 + 94 x77 + 5 x78 + 72 x79 + 12 x80
       + 69 x81 + 57 x82 + 45 x83 + 66 x84 + 88 x85 + 48 x86 + 83 x87 + 80 x88
       + 32 x89 + 58 x90 + 41 x91 + 63 x92 + 45 x93 + 32 x94 + 94 x95 + 5 x96
       + 72 x97 + 12 x98 + 69 x99 + 57 x100 + 45 x101 + 66 x102 + 88 x103
       + 48 x104 + 83 x105 + 80 x106 + 32 x107 + 58 x108 + 41 x109 + 63 x110
       + 45 x111 + 32 x112 + 66 x113 + 7 x114 + 25 x115 + 66 x116 + 17 x117
       + 88 x118 + 100 x119 + 37 x120 + 86 x121 + 23 x122 + 68 x123 + 13 x124
       + 4 x125 + 34 x126 + 77 x127 + 17 x128 + 66 x129 + 7 x130 + 25 x131
       + 66 x132 + 17 x133 + 88 x134 + 100 x135 + 37 x136 + 86 x137 + 23 x138
       + 68 x139 + 13 x140 + 4 x141 + 34 x142 + 77 x143 + 17 x144 + 66 x145
       + 7 x146 + 25 x147 + 66 x148 + 17 x149 + 88 x150 + 100 x151 + 37 x152
       + 86 x153 + 23 x154 + 68 x155 + 13 x156 + 4 x157 + 34 x158 + 77 x159
       + 17 x160 + 66 x161 + 7 x162 + 25 x163 + 66 x164 + 17 x165 + 88 x166
       + 100 x167 + 37 x168 + 86 x169 + 23 x170 + 68 x171 + 13 x172 + 4 x173
       + 34 x174 + 77 x175 + 17 x176 + 79 x177 + 52 x178 + 86 x179 + 66 x180
       + 73 x181 + 93 x182 + 82 x183 + 29 x184 + 22 x185 + 67 x186 + 94 x187
       + 86 x188 + 92 x189 + 92 x190 + 79 x191 + 52 x192 + 86 x193 + 66 x194
       + 73 x195 + 93 x196 + 82 x197 + 29 x198 + 22 x199 + 67 x200 + 94 x201
       + 86 x202 + 92 x203 + 92 x204 + 79 x205 + 52 x206 + 86 x207 + 66 x208
       + 73 x209 + 93 x210 + 82 x211 + 29 x212 + 22 x213 + 67 x214 + 94 x215
       + 86 x216 + 92 x217 + 92 x218 + 79 x219 + 52 x220 + 86 x221 + 66 x222
       + 73 x223 + 93 x224 + 82 x225 + 29 x226 + 22 x227 + 67 x228 + 94 x229
       + 86 x230 + 92 x231 + 92 x232 + 17 x233 + 21 x234 + 67 x235 + 45 x236
       + 69 x237 + 3 x238 + 24 x239 + 21 x240 + 80 x241 + 70 x242 + 9 x243
       + 48 x244 + 17 x245 + 21 x246 + 67 x247 + 45 x248 + 69 x249 + 3 x250
       + 24 x251 + 21 x252 + 80 x253 + 70 x254 + 9 x255 + 48 x256 + 17 x257
       + 21 x258 + 67 x259 + 45 x260 + 69 x261 + 3 x262 + 24 x263 + 21 x264
       + 80 x265 + 70 x266 + 9 x267 + 48 x268 + 17 x269 + 21 x270 + 67 x271
       + 45 x272 + 69 x273 + 3 x274 + 24 x275 + 21 x276 + 80 x277 + 70 x278
       + 9 x279 + 48 x280 + 12 x281 + 86 x282 + 41 x283 + 99 x284 + 77 x285
       + 60 x286 + 34 x287 + 52 x288 + 5 x289 + 42 x290 + 12 x291 + 86 x292
       + 41 x293 + 99 x294 + 77 x295 + 60 x296 + 34 x297 + 52 x298 + 5 x299
       + 42 x300 + 12 x301 + 86 x302 + 41 x303 + 99 x304 + 77 x305 + 60 x306
       + 34 x307 + 52 x308 + 5 x309 + 42 x310 + 12 x311 + 86 x312 + 41 x313
       + 99 x314 + 77 x315 + 60 x316 + 34 x317 + 52 x318 + 5 x319 + 42 x320
       + 25 x321 + 61 x322 + 40 x323 + 21 x324 + 17 x325 + 65 x326 + 16 x327
       + 51 x328 + 25 x329 + 61 x330 + 40 x331 + 21 x332 + 17 x333 + 65 x334
       + 16 x335 + 51 x336 + 25 x337 + 61 x338 + 40 x339 + 21 x340 + 17 x341
       + 65 x342 + 16 x343 + 51 x344 + 25 x345 + 61 x346 + 40 x347 + 21 x348
       + 17 x349 + 65 x350 + 16 x351 + 51 x352 + 65 x353 + 45 x354 + 75 x355
       + 74 x356 + 63 x357 + 50 x358 + 65 x359 + 45 x360 + 75 x361 + 74 x362
       + 63 x363 + 50 x364 + 65 x365 + 45 x366 + 75 x367 + 74 x368 + 63 x369
       + 50 x370 + 65 x371 + 45 x372 + 75 x373 + 74 x374 + 63 x375 + 50 x376
       + 3 x377 + 85 x378 + 77 x379 + 51 x380 + 3 x381 + 85 x382 + 77 x383
       + 51 x384 + 3 x385 + 85 x386 + 77 x387 + 51 x388 + 3 x389 + 85 x390
       + 77 x391 + 51 x392 + 54 x393 + 79 x394 + 54 x395 + 79 x396 + 54 x397
       + 79 x398 + 54 x399 + 79 x400
Subject To
 c1:         x1  = 0
 c2:         x2  = 0
 c3:         x3  = 0
 c4:         x4  = 0
 c5:         x5  = 0
 c6:         x6  = 0
 c7:         x7  = 0
 c8:         x8  = 0
 c9:         x9  = 0
 c10:        x10  = 0
 c11:        x11  = 0
 c12:        x12  = 0
 c13:        x13  = 0
 c14:        x14  = 0
 c15:        x15  = 0
 c16:        x16  = 0
 c17:        x17  = 0
 c18:        x18  = 0
 c19:        x19  = 0
 c20:        x20  = 0
 c21:        x21  = 0
 c22:        x22  = 0
 c23:        x23  = 0
 c24:        x24  = 0
 c25:        x25  = 0
 c26:        x26  = 0
 c27:        x27  = 0
 c28:        x28  = 0
 c29:        x29  = 0
 c30:        x30  = 0
 c31:        x31  = 0
 c32:        x32  = 0
 c33:        x33  = 0
 c34:        x34  = 0
 c35:        x35  = 0
 c36:        x36  = 0
 c37:        x37  = 0
 c38:        x38  = 0
 c39:        x39  = 0
 c40:        x40  = 0
 flow_0_0:   x41 + x42 + x43 + x44 + x45 + x46 + x47 + x48 + x49 - x50 - x51
             - x52 - x53 - x54 - x55 - x56 - x57 - x58  = 0
 flow_0_1:   x59 + x60 + x61 + x62 + x63 + x64 + x65 + x66 + x67 - x68 - x69
             - x70 - x71 - x72 - x73 - x74 - x75 - x76  = 0
 flow_0_2:   x77 + x78 + x79 + x80 + x81 + x82 + x83 + x84 + x85 - x86 - x87
             - x88 - x89 - x90 - x91 - x92 - x93 - x94  = 0
 flow_0_3:   x95 + x96 + x97 + x98 + x99 + x100 + x101 + x102 + x103 - x104
             - x105 - x106 - x107 - x108 - x109 - x110 - x111 - x112  = 0
 flow_1_0:   - x41 + x50 + x113 + x114 + x115 + x116 + x117 + x118 + x119
             + x120 - x121 - x122 - x123 - x124 - x125 - x126 - x127 - x128
              = 0
 flow_1_1:   - x59 + x68 + x129 + x130 + x131 + x132 + x133 + x134 + x135
             + x136 - x137 - x138 - x139 - x140 - x141 - x142 - x143 - x144
              = 0
 flow_1_2:   - x77 + x86 + x145 + x146 + x147 + x148 + x149 + x150 + x151
             + x152 - x153 - x154 - x155 - x156 - x157 - x158 - x159 - x160
              = 0
 flow_1_3:   - x95 + x104 + x161 + x162 + x163 + x164 + x165 + x166 + x167
             + x168 - x169 - x170 - x171 - x172 - x173 - x174 - x175 - x176
              = 0
 flow_2_0:   - x42 + x51 - x113 + x121 + x177 + x178 + x179 + x180 + x181
             + x182 + x183 - x184 - x185 - x186 - x187 - x188 - x189 - x190
              = 0
 flow_2_1:   - x60 + x69 - x129 + x137 + x191 + x192 + x193 + x194 + x195
             + x196 + x197 - x198 - x199 - x200 - x201 - x202 - x203 - x204
              = 0
 flow_2_2:   - x78 + x87 - x145 + x153 + x205 + x206 + x207 + x208 + x209
             + x210 + x211 - x212 - x213 - x214 - x215 - x216 - x217 - x218
              = 0
 flow_2_3:   - x96 + x105 - x161 + x169 + x219 + x220 + x221 + x222 + x223
             + x224 + x225 - x226 - x227 - x228 - x229 - x230 - x231 - x232
              = 0
 flow_3_0:   - x43 + x52 - x114 + x122 - x177 + x184 + x233 + x234 + x235
             + x236 + x237 + x238 - x239 - x240 - x241 - x242 - x243 - x244
              = 0
 flow_3_1:   - x61 + x70 - x130 + x138 - x191 + x198 + x245 + x246 + x247
             + x248 + x249 + x250 - x251 - x252 - x253 - x254 - x255 - x256
              = 0
 flow_3_2:   - x79 + x88 - x146 + x154 - x205 + x212 + x257 + x258 + x259
             + x260 + x261 + x262 - x263 - x264 - x265 - x266 - x267 - x268
              = 0
 flow_3_3:   - x97 + x106 - x162 + x170 - x219 + x226 + x269 + x270 + x271
             + x272 + x273 + x274 - x275 - x276 - x277 - x278 - x279 - x280
              = 0
 flow_4_0:   - x44 + x53 - x115 + x123 - x178 + x185 - x233 + x239 + x281
             + x282 + x283 + x284 + x285 - x286 - x287 - x288 - x289 - x290
              = 0
 flow_4_1:   - x62 + x71 - x131 + x139 - x192 + x199 - x245 + x251 + x291
             + x292 + x293 + x294 + x295 - x296 - x297 - x298 - x299 - x300
              = 0
 flow_4_2:   - x80 + x89 - x147 + x155 - x206 + x213 - x257 + x263 + x301
             + x302 + x303 + x304 + x305 - x306 - x307 - x308 - x309 - x310
              = 0
 flow_4_3:   - x98 + x107 - x163 + x171 - x220 + x227 - x269 + x275 + x311
             + x312 + x313 + x314 + x315 - x316 - x317 - x318 - x319 - x320
              = 0
 flow_5_0:   - x45 + x54 - x116 + x124 - x179 + x186 - x234 + x240 - x281
             + x286 + x321 + x322 + x323 + x324 - x325 - x326 - x327 - x328
              = 0
 flow_5_1:   - x63 + x72 - x132 + x140 - x193 + x200 - x246 + x252 - x291
             + x296 + x329 + x330 + x331 + x332 - x333 - x334 - x335 - x336
              = 0
 flow_5_2:   - x81 + x90 - x148 + x156 - x207 + x214 - x258 + x264 - x301
             + x306 + x337 + x338 + x339 + x340 - x341 - x342 - x343 - x344
              = 0
 flow_5_3:   - x99 + x108 - x164 + x172 - x221 + x228 - x270 + x276 - x311
             + x316 + x345 + x346 + x347 + x348 - x349 - x350 - x351 - x352
              = 0
 flow_6_0:   - x46 + x55 - x117 + x125 - x180 + x187 - x235 + x241 - x282
             + x287 - x321 + x325 + x353 + x354 + x355 - x356 - x357 - x358
              = 0
 flow_6_1:   - x64 + x73 - x133 + x141 - x194 + x201 - x247 + x253 - x292
             + x297 - x329 + x333 + x359 + x360 + x361 - x362 - x363 - x364
              = 0
 flow_6_2:   - x82 + x91 - x149 + x157 - x208 + x215 - x259 + x265 - x302
             + x307 - x337 + x341 + x365 + x366 + x367 - x368 - x369 - x370
              = 0
 flow_6_3:   - x100 + x109 - x165 + x173 - x222 + x229 - x271 + x277 - x312
             + x317 - x345 + x349 + x371 + x372 + x373 - x374 - x375 - x376
              = 0
 flow_7_0:   - x47 + x56 - x118 + x126 - x181 + x188 - x236 + x242 - x283
             + x288 - x322 + x326 - x353 + x356 + x377 + x378 - x379 - x380
              = 0
 flow_7_1:   - x65 + x74 - x134 + x142 - x195 + x202 - x248 + x254 - x293
             + x298 - x330 + x334 - x359 + x362 + x381 + x382 - x383 - x384
              = 0
 flow_7_2:   - x83 + x92 - x150 + x158 - x209 + x216 - x260 + x266 - x303
             + x308 - x338 + x342 - x365 + x368 + x385 + x386 - x387 - x388
              = 0
 flow_7_3:   - x101 + x110 - x166 + x174 - x223 + x230 - x272 + x278 - x313
             + x318 - x346 + x350 - x371 + x374 + x389 + x390 - x391 - x392
              = 0
 flow_8_0:   - x48 + x57 - x119 + x127 - x182 + x189 - x237 + x243 - x284
             + x289 - x323 + x327 - x354 + x357 - x377 + x379 + x393 - x394
              = 0
 flow_8_1:   - x66 + x75 - x135 + x143 - x196 + x203 - x249 + x255 - x294
             + x299 - x331 + x335 - x360 + x363 - x381 + x383 + x395 - x396
              = 0
 flow_8_2:   - x84 + x93 - x151 + x159 - x210 + x217 - x261 + x267 - x304
             + x309 - x339 + x343 - x366 + x369 - x385 + x387 + x397 - x398
              = 0
 flow_8_3:   - x102 + x111 - x167 + x175 - x224 + x231 - x273 + x279 - x314
             + x319 - x347 + x351 - x372 + x375 - x389 + x391 + x399 - x400
              = 0
 flow_9_0:   - x49 + x58 - x120 + x128 - x183 + x190 - x238 + x244 - x285
             + x290 - x324 + x328 - x355 + x358 - x378 + x380 - x393 + x394
              = 0
 flow_9_1:   - x67 + x76 - x136 + x144 - x197 + x204 - x250 + x256 - x295
             + x300 - x332 + x336 - x361 + x364 - x382 + x384 - x395 + x396
              = 0
 flow_9_2:   - x85 + x94 - x152 + x160 - x211 + x218 - x262 + x268 - x305
             + x310 - x340 + x344 - x367 + x370 - x386 + x388 - x397 + x398
              = 0
 flow_9_3:   - x103 + x112 - x168 + x176 - x225 + x232 - x274 + x280 - x315
             + x320 - x348 + x352 - x373 + x376 - x390 + x392 - x399 + x400
              = 0
 serving_0:  x401 + x402 + x403 + x404  = 1
 serving_1:  x405 + x406 + x407 + x408  = 1
 serving_2:  x409 + x410 + x411 + x412  = 1
 serving_3:  x413 + x414 + x415 + x416  = 1
 serving_4:  x417 + x418 + x419 + x420  = 1
 serving_5:  x421 + x422 + x423 + x424  = 1
 serving_6:  x425 + x426 + x427 + x428  = 1
 serving_7:  x429 + x430 + x431 + x432  = 1
 serving_8:  x433 + x434 + x435 + x436  = 1
 depot_0:    x1 + x41 + x42 + x43 + x44 + x45 + x46 + x47 + x48 + x49 <= 1
 depot_1:    x2 + x59 + x60 + x61 + x62 + x63 + x64 + x65 + x66 + x67 <= 1
 depot_2:    x3 + x77 + x78 + x79 + x80 + x81 + x82 + x83 + x84 + x85 <= 1
 depot_3:    x4 + x95 + x96 + x97 + x98 + x99 + x100 + x101 + x102 + x103 <= 1
 visit_0_0:  - x5 - x41 - x121 - x122 - x123 - x124 - x125 - x126 - x127 - x128
             + x404 <= 0
 visit_0_1:  - x6 - x59 - x137 - x138 - x139 - x140 - x141 - x142 - x143 - x144
             + x403 <= 0
 visit_0_2:  - x7 - x77 - x153 - x154 - x155 - x156 - x157 - x158 - x159 - x160
             + x402 <= 0
 visit_0_3:  - x8 - x95 - x169 - x170 - x171 - x172 - x173 - x174 - x175 - x176
             + x401 <= 0
 visit_1_0:  - x9 - x42 - x113 - x184 - x185 - x186 - x187 - x188 - x189 - x190
             + x408 <= 0
 visit_1_1:  - x10 - x60 - x129 - x198 - x199 - x200 - x201 - x202 - x203
             - x204 + x407 <= 0
 visit_1_2:  - x11 - x78 - x145 - x212 - x213 - x214 - x215 - x216 - x217
             - x218 + x406 <= 0
 visit_1_3:  - x12 - x96 - x161 - x226 - x227 - x228 - x229 - x230 - x231
             - x232 + x405 <= 0
 visit_2_0:  - x13 - x37 - x43 - x49 - x114 - x120 - x177 - x183 - x238 - x239
             - x240 - x241 - x242 - x243 - x244 - x285 - x324 - x355 - x378
             - x393 + x412 <= 0
 visit_2_1:  - x14 - x38 - x61 - x67 - x130 - x136 - x191 - x197 - x250 - x251
             - x252 - x253 - x254 - x255 - x256 - x295 - x332 - x361 - x382
             - x395 + x411 <= 0
 visit_2_2:  - x15 - x39 - x79 - x85 - x146 - x152 - x205 - x211 - x262 - x263
             - x264 - x265 - x266 - x267 - x268 - x305 - x340 - x367 - x386
             - x397 + x410 <= 0
 visit_2_3:  - x16 - x40 - x97 - x103 - x162 - x168 - x219 - x225 - x274 - x275
             - x276 - x277 - x278 - x279 - x280 - x315 - x348 - x373 - x390
             - x399 + x409 <= 0
 visit_3_0:  - x17 - x44 - x115 - x178 - x233 - x286 - x287 - x288 - x289
             - x290 + x416 <= 0
 visit_3_1:  - x18 - x62 - x131 - x192 - x245 - x296 - x297 - x298 - x299
             - x300 + x415 <= 0
 visit_3_2:  - x19 - x80 - x147 - x206 - x257 - x306 - x307 - x308 - x309
             - x310 + x414 <= 0
 visit_3_3:  - x20 - x98 - x163 - x220 - x269 - x316 - x317 - x318 - x319
             - x320 + x413 <= 0
 visit_4_0:  - x21 - x45 - x116 - x179 - x234 - x281 - x325 - x326 - x327
             - x328 + x420 <= 0
 visit_4_1:  - x22 - x63 - x132 - x193 - x246 - x291 - x333 - x334 - x335
             - x336 + x419 <= 0
 visit_4_2:  - x23 - x81 - x148 - x207 - x258 - x301 - x341 - x342 - x343
             - x344 + x418 <= 0
 visit_4_3:  - x24 - x99 - x164 - x221 - x270 - x311 - x349 - x350 - x351
             - x352 + x417 <= 0
 visit_5_0:  - x5 - x25 - x41 - x46 - x117 - x121 - x122 - x123 - x124 - x125
             - x126 - x127 - x128 - x180 - x235 - x282 - x321 - x356 - x357
             - x358 + x424 <= 0
 visit_5_1:  - x6 - x26 - x59 - x64 - x133 - x137 - x138 - x139 - x140 - x141
             - x142 - x143 - x144 - x194 - x247 - x292 - x329 - x362 - x363
             - x364 + x423 <= 0
 visit_5_2:  - x7 - x27 - x77 - x82 - x149 - x153 - x154 - x155 - x156 - x157
             - x158 - x159 - x160 - x208 - x259 - x302 - x337 - x368 - x369
             - x370 + x422 <= 0
 visit_5_3:  - x8 - x28 - x95 - x100 - x165 - x169 - x170 - x171 - x172 - x173
             - x174 - x175 - x176 - x222 - x271 - x312 - x345 - x374 - x375
             - x376 + x421 <= 0
 visit_6_0:  - x29 - x33 - x47 - x48 - x118 - x119 - x181 - x182 - x236 - x237
             - x283 - x284 - x322 - x323 - x353 - x354 - x377 - x379 - x380
             - x394 + x428 <= 0
 visit_6_1:  - x30 - x34 - x65 - x66 - x134 - x135 - x195 - x196 - x248 - x249
             - x293 - x294 - x330 - x331 - x359 - x360 - x381 - x383 - x384
             - x396 + x427 <= 0
 visit_6_2:  - x31 - x35 - x83 - x84 - x150 - x151 - x209 - x210 - x260 - x261
             - x303 - x304 - x338 - x339 - x365 - x366 - x385 - x387 - x388
             - x398 + x426 <= 0
 visit_6_3:  - x32 - x36 - x101 - x102 - x166 - x167 - x223 - x224 - x272
             - x273 - x313 - x314 - x346 - x347 - x371 - x372 - x389 - x391
             - x392 - x400 + x425 <= 0
 visit_7_0:  - x33 - x48 - x119 - x182 - x237 - x284 - x323 - x354 - x377
             - x394 + x432 <= 0
 visit_7_1:  - x34 - x66 - x135 - x196 - x249 - x294 - x331 - x360 - x381
             - x396 + x431 <= 0
 visit_7_2:  - x35 - x84 - x151 - x210 - x261 - x304 - x339 - x366 - x385
             - x398 + x430 <= 0
 visit_7_3:  - x36 - x102 - x167 - x224 - x273 - x314 - x347 - x372 - x389
             - x400 + x429 <= 0
 visit_8_0:  - x37 - x49 - x120 - x183 - x238 - x285 - x324 - x355 - x378
             - x393 + x436 <= 0
 visit_8_1:  - x38 - x67 - x136 - x197 - x250 - x295 - x332 - x361 - x382
             - x395 + x435 <= 0
 visit_8_2:  - x39 - x85 - x152 - x211 - x262 - x305 - x340 - x367 - x386
             - x397 + x434 <= 0
 visit_8_3:  - x40 - x103 - x168 - x225 - x274 - x315 - x348 - x373 - x390
             - x399 + x433 <= 0
 capacity_0: 20 x404 + 20 x408 + 20 x412 + 20 x416 + 20 x420 + 20 x424
             + 20 x428 + 20 x432 + 20 x436 <= 100
 capacity_1: 20 x403 + 20 x407 + 20 x411 + 20 x415 + 20 x419 + 20 x423
             + 20 x427 + 20 x431 + 20 x435 <= 100
 capacity_2: 20 x402 + 20 x406 + 20 x410 + 20 x414 + 20 x418 + 20 x422
             + 20 x426 + 20 x430 + 20 x434 <= 100
 capacity_3: 20 x401 + 20 x405 + 20 x409 + 20 x413 + 20 x417 + 20 x421
             + 20 x425 + 20 x429 + 20 x433 <= 100
 mtz_1_2_0:  9 x113 + x437 - x438 <= 8
 mtz_1_2_1:  9 x129 + x439 - x440 <= 8
 mtz_1_2_2:  9 x145 + x441 - x442 <= 8
 mtz_1_2_3:  9 x161 + x443 - x444 <= 8
 mtz_1_3_0:  9 x114 + x437 - x445 <= 8
 mtz_1_3_1:  9 x130 + x439 - x446 <= 8
 mtz_1_3_2:  9 x146 + x441 - x447 <= 8
 mtz_1_3_3:  9 x162 + x443 - x448 <= 8
 mtz_1_4_0:  9 x115 + x437 - x449 <= 8
 mtz_1_4_1:  9 x131 + x439 - x450 <= 8
 mtz_1_4_2:  9 x147 + x441 - x451 <= 8
 mtz_1_4_3:  9 x163 + x443 - x452 <= 8
 mtz_1_5_0:  9 x116 + x437 - x453 <= 8
 mtz_1_5_1:  9 x132 + x439 - x454 <= 8
 mtz_1_5_2:  9 x148 + x441 - x455 <= 8
 mtz_1_5_3:  9 x164 + x443 - x456 <= 8
 mtz_1_6_0:  9 x117 + x437 - x457 <= 8
 mtz_1_6_1:  9 x133 + x439 - x458 <= 8
 mtz_1_6_2:  9 x149 + x441 - x459 <= 8
 mtz_1_6_3:  9 x165 + x443 - x460 <= 8
 mtz_1_7_0:  9 x118 + x437 - x461 <= 8
 mtz_1_7_1:  9 x134 + x439 - x462 <= 8
 mtz_1_7_2:  9 x150 + x441 - x463 <= 8
 mtz_1_7_3:  9 x166 + x443 - x464 <= 8
 mtz_1_8_0:  9 x119 + x437 - x465 <= 8
 mtz_1_8_1:  9 x135 + x439 - x466 <= 8
 mtz_1_8_2:  9 x151 + x441 - x467 <= 8
 mtz_1_8_3:  9 x167 + x443 - x468 <= 8
 mtz_1_9_0:  9 x120 + x437 - x469 <= 8
 mtz_1_9_1:  9 x136 + x439 - x470 <= 8
 mtz_1_9_2:  9 x152 + x441 - x471 <= 8
 mtz_1_9_3:  9 x168 + x443 - x472 <= 8
 mtz_2_1_0:  9 x121 - x437 + x438 <= 8
 mtz_2_1_1:  9 x137 - x439 + x440 <= 8
 mtz_2_1_2:  9 x153 - x441 + x442 <= 8
 mtz_2_1_3:  9 x169 - x443 + x444 <= 8
 mtz_2_3_0:  9 x177 + x438 - x445 <= 8
 mtz_2_3_1:  9 x191 + x440 - x446 <= 8
 mtz_2_3_2:  9 x205 + x442 - x447 <= 8
 mtz_2_3_3:  9 x219 + x444 - x448 <= 8
 mtz_2_4_0:  9 x178 + x438 - x449 <= 8
 mtz_2_4_1:  9 x192 + x440 - x450 <= 8
 mtz_2_4_2:  9 x206 + x442 - x451 <= 8
 mtz_2_4_3:  9 x220 + x444 - x452 <= 8
 mtz_2_5_0:  9 x179 + x438 - x453 <= 8
 mtz_2_5_1:  9 x193 + x440 - x454 <= 8
 mtz_2_5_2:  9 x207 + x442 - x455 <= 8
 mtz_2_5_3:  9 x221 + x444 - x456 <= 8
 mtz_2_6_0:  9 x180 + x438 - x457 <= 8
 mtz_2_6_1:  9 x194 + x440 - x458 <= 8
 mtz_2_6_2:  9 x208 + x442 - x459 <= 8
 mtz_2_6_3:  9 x222 + x444 - x460 <= 8
 mtz_2_7_0:  9 x181 + x438 - x461 <= 8
 mtz_2_7_1:  9 x195 + x440 - x462 <= 8
 mtz_2_7_2:  9 x209 + x442 - x463 <= 8
 mtz_2_7_3:  9 x223 + x444 - x464 <= 8
 mtz_2_8_0:  9 x182 + x438 - x465 <= 8
 mtz_2_8_1:  9 x196 + x440 - x466 <= 8
 mtz_2_8_2:  9 x210 + x442 - x467 <= 8
 mtz_2_8_3:  9 x224 + x444 - x468 <= 8
 mtz_2_9_0:  9 x183 + x438 - x469 <= 8
 mtz_2_9_1:  9 x197 + x440 - x470 <= 8
 mtz_2_9_2:  9 x211 + x442 - x471 <= 8
 mtz_2_9_3:  9 x225 + x444 - x472 <= 8
 mtz_3_1_0:  9 x122 - x437 + x445 <= 8
 mtz_3_1_1:  9 x138 - x439 + x446 <= 8
 mtz_3_1_2:  9 x154 - x441 + x447 <= 8
 mtz_3_1_3:  9 x170 - x443 + x448 <= 8
 mtz_3_2_0:  9 x184 - x438 + x445 <= 8
 mtz_3_2_1:  9 x198 - x440 + x446 <= 8
 mtz_3_2_2:  9 x212 - x442 + x447 <= 8
 mtz_3_2_3:  9 x226 - x444 + x448 <= 8
 mtz_3_4_0:  9 x233 + x445 - x449 <= 8
 mtz_3_4_1:  9 x245 + x446 - x450 <= 8
 mtz_3_4_2:  9 x257 + x447 - x451 <= 8
 mtz_3_4_3:  9 x269 + x448 - x452 <= 8
 mtz_3_5_0:  9 x234 + x445 - x453 <= 8
 mtz_3_5_1:  9 x246 + x446 - x454 <= 8
 mtz_3_5_2:  9 x258 + x447 - x455 <= 8
 mtz_3_5_3:  9 x270 + x448 - x456 <= 8
 mtz_3_6_0:  9 x235 + x445 - x457 <= 8
 mtz_3_6_1:  9 x247 + x446 - x458 <= 8
 mtz_3_6_2:  9 x259 + x447 - x459 <= 8
 mtz_3_6_3:  9 x271 + x448 - x460 <= 8
 mtz_3_7_0:  9 x236 + x445 - x461 <= 8
 mtz_3_7_1:  9 x248 + x446 - x462 <= 8
 mtz_3_7_2:  9 x260 + x447 - x463 <= 8
 mtz_3_7_3:  9 x272 + x448 - x464 <= 8
 mtz_3_8_0:  9 x237 + x445 - x465 <= 8
 mtz_3_8_1:  9 x249 + x446 - x466 <= 8
 mtz_3_8_2:  9 x261 + x447 - x467 <= 8
 mtz_3_8_3:  9 x273 + x448 - x468 <= 8
 mtz_3_9_0:  9 x238 + x445 - x469 <= 8
 mtz_3_9_1:  9 x250 + x446 - x470 <= 8
 mtz_3_9_2:  9 x262 + x447 - x471 <= 8
 mtz_3_9_3:  9 x274 + x448 - x472 <= 8
 mtz_4_1_0:  9 x123 - x437 + x449 <= 8
 mtz_4_1_1:  9 x139 - x439 + x450 <= 8
 mtz_4_1_2:  9 x155 - x441 + x451 <= 8
 mtz_4_1_3:  9 x171 - x443 + x452 <= 8
 mtz_4_2_0:  9 x185 - x438 + x449 <= 8
 mtz_4_2_1:  9 x199 - x440 + x450 <= 8
 mtz_4_2_2:  9 x213 - x442 + x451 <= 8
 mtz_4_2_3:  9 x227 - x444 + x452 <= 8
 mtz_4_3_0:  9 x239 - x445 + x449 <= 8
 mtz_4_3_1:  9 x251 - x446 + x450 <= 8
 mtz_4_3_2:  9 x263 - x447 + x451 <= 8
 mtz_4_3_3:  9 x275 - x448 + x452 <= 8
 mtz_4_5_0:  9 x281 + x449 - x453 <= 8
 mtz_4_5_1:  9 x291 + x450 - x454 <= 8
 mtz_4_5_2:  9 x301 + x451 - x455 <= 8
 mtz_4_5_3:  9 x311 + x452 - x456 <= 8
 mtz_4_6_0:  9 x282 + x449 - x457 <= 8
 mtz_4_6_1:  9 x292 + x450 - x458 <= 8
 mtz_4_6_2:  9 x302 + x451 - x459 <= 8
 mtz_4_6_3:  9 x312 + x452 - x460 <= 8
 mtz_4_7_0:  9 x283 + x449 - x461 <= 8
 mtz_4_7_1:  9 x293 + x450 - x462 <= 8
 mtz_4_7_2:  9 x303 + x451 - x463 <= 8
 mtz_4_7_3:  9 x313 + x452 - x464 <= 8
 mtz_4_8_0:  9 x284 + x449 - x465 <= 8
 mtz_4_8_1:  9 x294 + x450 - x466 <= 8
 mtz_4_8_2:  9 x304 + x451 - x467 <= 8
 mtz_4_8_3:  9 x314 + x452 - x468 <= 8
 mtz_4_9_0:  9 x285 + x449 - x469 <= 8
 mtz_4_9_1:  9 x295 + x450 - x470 <= 8
 mtz_4_9_2:  9 x305 + x451 - x471 <= 8
 mtz_4_9_3:  9 x315 + x452 - x472 <= 8
 mtz_5_1_0:  9 x124 - x437 + x453 <= 8
 mtz_5_1_1:  9 x140 - x439 + x454 <= 8
 mtz_5_1_2:  9 x156 - x441 + x455 <= 8
 mtz_5_1_3:  9 x172 - x443 + x456 <= 8
 mtz_5_2_0:  9 x186 - x438 + x453 <= 8
 mtz_5_2_1:  9 x200 - x440 + x454 <= 8
 mtz_5_2_2:  9 x214 - x442 + x455 <= 8
 mtz_5_2_3:  9 x228 - x444 + x456 <= 8
 mtz_5_3_0:  9 x240 - x445 + x453 <= 8
 mtz_5_3_1:  9 x252 - x446 + x454 <= 8
 mtz_5_3_2:  9 x264 - x447 + x455 <= 8
 mtz_5_3_3:  9 x276 - x448 + x456 <= 8
 mtz_5_4_0:  9 x286 - x449 + x453 <= 8
 mtz_5_4_1:  9 x296 - x450 + x454 <= 8
 mtz_5_4_2:  9 x306 - x451 + x455 <= 8
 mtz_5_4_3:  9 x316 - x452 + x456 <= 8
 mtz_5_6_0:  9 x321 + x453 - x457 <= 8
 mtz_5_6_1:  9 x329 + x454 - x458 <= 8
 mtz_5_6_2:  9 x337 + x455 - x459 <= 8
 mtz_5_6_3:  9 x345 + x456 - x460 <= 8
 mtz_5_7_0:  9 x322 + x453 - x461 <= 8
 mtz_5_7_1:  9 x330 + x454 - x462 <= 8
 mtz_5_7_2:  9 x338 + x455 - x463 <= 8
 mtz_5_7_3:  9 x346 + x456 - x464 <= 8
 mtz_5_8_0:  9 x323 + x453 - x465 <= 8
 mtz_5_8_1:  9 x331 + x454 - x466 <= 8
 mtz_5_8_2:  9 x339 + x455 - x467 <= 8
 mtz_5_8_3:  9 x347 + x456 - x468 <= 8
 mtz_5_9_0:  9 x324 + x453 - x469 <= 8
 mtz_5_9_1:  9 x332 + x454 - x470 <= 8
 mtz_5_9_2:  9 x340 + x455 - x471 <= 8
 mtz_5_9_3:  9 x348 + x456 - x472 <= 8
 mtz_6_1_0:  9 x125 - x437 + x457 <= 8
 mtz_6_1_1:  9 x141 - x439 + x458 <= 8
 mtz_6_1_2:  9 x157 - x441 + x459 <= 8
 mtz_6_1_3:  9 x173 - x443 + x460 <= 8
 mtz_6_2_0:  9 x187 - x438 + x457 <= 8
 mtz_6_2_1:  9 x201 - x440 + x458 <= 8
 mtz_6_2_2:  9 x215 - x442 + x459 <= 8
 mtz_6_2_3:  9 x229 - x444 + x460 <= 8
 mtz_6_3_0:  9 x241 - x445 + x457 <= 8
 mtz_6_3_1:  9 x253 - x446 + x458 <= 8
 mtz_6_3_2:  9 x265 - x447 + x459 <= 8
 mtz_6_3_3:  9 x277 - x448 + x460 <= 8
 mtz_6_4_0:  9 x287 - x449 + x457 <= 8
 mtz_6_4_1:  9 x297 - x450 + x458 <= 8
 mtz_6_4_2:  9 x307 - x451 + x459 <= 8
 mtz_6_4_3:  9 x317 - x452 + x460 <= 8
 mtz_6_5_0:  9 x325 - x453 + x457 <= 8
 mtz_6_5_1:  9 x333 - x454 + x458 <= 8
 mtz_6_5_2:  9 x341 - x455 + x459 <= 8
 mtz_6_5_3:  9 x349 - x456 + x460 <= 8
 mtz_6_7_0:  9 x353 + x457 - x461 <= 8
 mtz_6_7_1:  9 x359 + x458 - x462 <= 8
 mtz_6_7_2:  9 x365 + x459 - x463 <= 8
 mtz_6_7_3:  9 x371 + x460 - x464 <= 8
 mtz_6_8_0:  9 x354 + x457 - x465 <= 8
 mtz_6_8_1:  9 x360 + x458 - x466 <= 8
 mtz_6_8_2:  9 x366 + x459 - x467 <= 8
 mtz_6_8_3:  9 x372 + x460 - x468 <= 8
 mtz_6_9_0:  9 x355 + x457 - x469 <= 8
 mtz_6_9_1:  9 x361 + x458 - x470 <= 8
 mtz_6_9_2:  9 x367 + x459 - x471 <= 8
 mtz_6_9_3:  9 x373 + x460 - x472 <= 8
 mtz_7_1_0:  9 x126 - x437 + x461 <= 8
 mtz_7_1_1:  9 x142 - x439 + x462 <= 8
 mtz_7_1_2:  9 x158 - x441 + x463 <= 8
 mtz_7_1_3:  9 x174 - x443 + x464 <= 8
 mtz_7_2_0:  9 x188 - x438 + x461 <= 8
 mtz_7_2_1:  9 x202 - x440 + x462 <= 8
 mtz_7_2_2:  9 x216 - x442 + x463 <= 8
 mtz_7_2_3:  9 x230 - x444 + x464 <= 8
 mtz_7_3_0:  9 x242 - x445 + x461 <= 8
 mtz_7_3_1:  9 x254 - x446 + x462 <= 8
 mtz_7_3_2:  9 x266 - x447 + x463 <= 8
 mtz_7_3_3:  9 x278 - x448 + x464 <= 8
 mtz_7_4_0:  9 x288 - x449 + x461 <= 8
 mtz_7_4_1:  9 x298 - x450 + x462 <= 8
 mtz_7_4_2:  9 x308 - x451 + x463 <= 8
 mtz_7_4_3:  9 x318 - x452 + x464 <= 8
 mtz_7_5_0:  9 x326 - x453 + x461 <= 8
 mtz_7_5_1:  9 x334 - x454 + x462 <= 8
 mtz_7_5_2:  9 x342 - x455 + x463 <= 8
 mtz_7_5_3:  9 x350 - x456 + x464 <= 8
 mtz_7_6_0:  9 x356 - x457 + x461 <= 8
 mtz_7_6_1:  9 x362 - x458 + x462 <= 8
 mtz_7_6_2:  9 x368 - x459 + x463 <= 8
 mtz_7_6_3:  9 x374 - x460 + x464 <= 8
 mtz_7_8_0:  9 x377 + x461 - x465 <= 8
 mtz_7_8_1:  9 x381 + x462 - x466 <= 8
 mtz_7_8_2:  9 x385 + x463 - x467 <= 8
 mtz_7_8_3:  9 x389 + x464 - x468 <= 8
 mtz_7_9_0:  9 x378 + x461 - x469 <= 8
 mtz_7_9_1:  9 x382 + x462 - x470 <= 8
 mtz_7_9_2:  9 x386 + x463 - x471 <= 8
 mtz_7_9_3:  9 x390 + x464 - x472 <= 8
 mtz_8_1_0:  9 x127 - x437 + x465 <= 8
 mtz_8_1_1:  9 x143 - x439 + x466 <= 8
 mtz_8_1_2:  9 x159 - x441 + x467 <= 8
 mtz_8_1_3:  9 x175 - x443 + x468 <= 8
 mtz_8_2_0:  9 x189 - x438 + x465 <= 8
 mtz_8_2_1:  9 x203 - x440 + x466 <= 8
 mtz_8_2_2:  9 x217 - x442 + x467 <= 8
 mtz_8_2_3:  9 x231 - x444 + x468 <= 8
 mtz_8_3_0:  9 x243 - x445 + x465 <= 8
 mtz_8_3_1:  9 x255 - x446 + x466 <= 8
 mtz_8_3_2:  9 x267 - x447 + x467 <= 8
 mtz_8_3_3:  9 x279 - x448 + x468 <= 8
 mtz_8_4_0:  9 x289 - x449 + x465 <= 8
 mtz_8_4_1:  9 x299 - x450 + x466 <= 8
 mtz_8_4_2:  9 x309 - x451 + x467 <= 8
 mtz_8_4_3:  9 x319 - x452 + x468 <= 8
 mtz_8_5_0:  9 x327 - x453 + x465 <= 8
 mtz_8_5_1:  9 x335 - x454 + x466 <= 8
 mtz_8_5_2:  9 x343 - x455 + x467 <= 8
 mtz_8_5_3:  9 x351 - x456 + x468 <= 8
 mtz_8_6_0:  9 x357 - x457 + x465 <= 8
 mtz_8_6_1:  9 x363 - x458 + x466 <= 8
 mtz_8_6_2:  9 x369 - x459 + x467 <= 8
 mtz_8_6_3:  9 x375 - x460 + x468 <= 8
 mtz_8_7_0:  9 x379 - x461 + x465 <= 8
 mtz_8_7_1:  9 x383 - x462 + x466 <= 8
 mtz_8_7_2:  9 x387 - x463 + x467 <= 8
 mtz_8_7_3:  9 x391 - x464 + x468 <= 8
 mtz_8_9_0:  9 x393 + x465 - x469 <= 8
 mtz_8_9_1:  9 x395 + x466 - x470 <= 8
 mtz_8_9_2:  9 x397 + x467 - x471 <= 8
 mtz_8_9_3:  9 x399 + x468 - x472 <= 8
 mtz_9_1_0:  9 x128 - x437 + x469 <= 8
 mtz_9_1_1:  9 x144 - x439 + x470 <= 8
 mtz_9_1_2:  9 x160 - x441 + x471 <= 8
 mtz_9_1_3:  9 x176 - x443 + x472 <= 8
 mtz_9_2_0:  9 x190 - x438 + x469 <= 8
 mtz_9_2_1:  9 x204 - x440 + x470 <= 8
 mtz_9_2_2:  9 x218 - x442 + x471 <= 8
 mtz_9_2_3:  9 x232 - x444 + x472 <= 8
 mtz_9_3_0:  9 x244 - x445 + x469 <= 8
 mtz_9_3_1:  9 x256 - x446 + x470 <= 8
 mtz_9_3_2:  9 x268 - x447 + x471 <= 8
 mtz_9_3_3:  9 x280 - x448 + x472 <= 8
 mtz_9_4_0:  9 x290 - x449 + x469 <= 8
 mtz_9_4_1:  9 x300 - x450 + x470 <= 8
 mtz_9_4_2:  9 x310 - x451 + x471 <= 8
 mtz_9_4_3:  9 x320 - x452 + x472 <= 8
 mtz_9_5_0:  9 x328 - x453 + x469 <= 8
 mtz_9_5_1:  9 x336 - x454 + x470 <= 8
 mtz_9_5_2:  9 x344 - x455 + x471 <= 8
 mtz_9_5_3:  9 x352 - x456 + x472 <= 8
 mtz_9_6_0:  9 x358 - x457 + x469 <= 8
 mtz_9_6_1:  9 x364 - x458 + x470 <= 8
 mtz_9_6_2:  9 x370 - x459 + x471 <= 8
 mtz_9_6_3:  9 x376 - x460 + x472 <= 8
 mtz_9_7_0:  9 x380 - x461 + x469 <= 8
 mtz_9_7_1:  9 x384 - x462 + x470 <= 8
 mtz_9_7_2:  9 x388 - x463 + x471 <= 8
 mtz_9_7_3:  9 x392 - x464 + x472 <= 8
 mtz_9_8_0:  9 x394 - x465 + x469 <= 8
 mtz_9_8_1:  9 x396 - x466 + x470 <= 8
 mtz_9_8_2:  9 x398 - x467 + x471 <= 8
 mtz_9_8_3:  9 x400 - x468 + x472 <= 8
Bounds
 0 <= x1 <= 1
 0 <= x2 <= 1
 0 <= x3 <= 1
 0 <= x4 <= 1
 0 <= x5 <= 1
 0 <= x6 <= 1
 0 <= x7 <= 1
 0 <= x8 <= 1
 0 <= x9 <= 1
 0 <= x10 <= 1
 0 <= x11 <= 1
 0 <= x12 <= 1
 0 <= x13 <= 1
 0 <= x14 <= 1
 0 <= x15 <= 1
 0 <= x16 <= 1
 0 <= x17 <= 1
 0 <= x18 <= 1
 0 <= x19 <= 1
 0 <= x20 <= 1
 0 <= x21 <= 1
 0 <= x22 <= 1
 0 <= x23 <= 1
 0 <= x24 <= 1
 0 <= x25 <= 1
 0 <= x26 <= 1
 0 <= x27 <= 1
 0 <= x28 <= 1
 0 <= x29 <= 1
 0 <= x30 <= 1
 0 <= x31 <= 1
 0 <= x32 <= 1
 0 <= x33 <= 1
 0 <= x34 <= 1
 0 <= x35 <= 1
 0 <= x36 <= 1
 0 <= x37 <= 1
 0 <= x38 <= 1
 0 <= x39 <= 1
 0 <= x40 <= 1
 0 <= x41 <= 1
 0 <= x42 <= 1
 0 <= x43 <= 1
 0 <= x44 <= 1
 0 <= x45 <= 1
 0 <= x46 <= 1
 0 <= x47 <= 1
 0 <= x48 <= 1
 0 <= x49 <= 1
 0 <= x50 <= 1
 0 <= x51 <= 1
 0 <= x52 <= 1
 0 <= x53 <= 1
 0 <= x54 <= 1
 0 <= x55 <= 1
 0 <= x56 <= 1
 0 <= x57 <= 1
 0 <= x58 <= 1
 0 <= x59 <= 1
 0 <= x60 <= 1
 0 <= x61 <= 1
 0 <= x62 <= 1
 0 <= x63 <= 1
 0 <= x64 <= 1
 0 <= x65 <= 1
 0 <= x66 <= 1
 0 <= x67 <= 1
 0 <= x68 <= 1
 0 <= x69 <= 1
 0 <= x70 <= 1
 0 <= x71 <= 1
 0 <= x72 <= 1
 0 <= x73 <= 1
 0 <= x74 <= 1
 0 <= x75 <= 1
 0 <= x76 <= 1
 0 <= x77 <= 1
 0 <= x78 <= 1
 0 <= x79 <= 1
 0 <= x80 <= 1
 0 <= x81 <= 1
 0 <= x82 <= 1
 0 <= x83 <= 1
 0 <= x84 <= 1
 0 <= x85 <= 1
 0 <= x86 <= 1
 0 <= x87 <= 1
 0 <= x88 <= 1
 0 <= x89 <= 1
 0 <= x90 <= 1
 0 <= x91 <= 1
 0 <= x92 <= 1
 0 <= x93 <= 1
 0 <= x94 <= 1
 0 <= x95 <= 1
 0 <= x96 <= 1
 0 <= x97 <= 1
 0 <= x98 <= 1
 0 <= x99 <= 1
 0 <= x100 <= 1
 0 <= x101 <= 1
 0 <= x102 <= 1
 0 <= x103 <= 1
 0 <= x104 <= 1
 0 <= x105 <= 1
 0 <= x106 <= 1
 0 <= x107 <= 1
 0 <= x108 <= 1
 0 <= x109 <= 1
 0 <= x110 <= 1
 0 <= x111 <= 1
 0 <= x112 <= 1
 0 <= x113 <= 1
 0 <= x114 <= 1
 0 <= x115 <= 1
 0 <= x116 <= 1
 0 <= x117 <= 1
 0 <= x118 <= 1
 0 <= x119 <= 1
 0 <= x120 <= 1
 0 <= x121 <= 1
 0 <= x122 <= 1
 0 <= x123 <= 1
 0 <= x124 <= 1
 0 <= x125 <= 1
 0 <= x126 <= 1
 0 <= x127 <= 1
 0 <= x128 <= 1
 0 <= x129 <= 1
 0 <= x130 <= 1
 0 <= x131 <= 1
 0 <= x132 <= 1
 0 <= x133 <= 1
 0 <= x134 <= 1
 0 <= x135 <= 1
 0 <= x136 <= 1
 0 <= x137 <= 1
 0 <= x138 <= 1
 0 <= x139 <= 1
 0 <= x140 <= 1
 0 <= x141 <= 1
 0 <= x142 <= 1
 0 <= x143 <= 1
 0 <= x144 <= 1
 0 <= x145 <= 1
 0 <= x146 <= 1
 0 <= x147 <= 1
 0 <= x148 <= 1
 0 <= x149 <= 1
 0 <= x150 <= 1
 0 <= x151 <= 1
 0 <= x152 <= 1
 0 <= x153 <= 1
 0 <= x154 <= 1
 0 <= x155 <= 1
 0 <= x156 <= 1
 0 <= x157 <= 1
 0 <= x158 <= 1
 0 <= x159 <= 1
 0 <= x160 <= 1
 0 <= x161 <= 1
 0 <= x162 <= 1
 0 <= x163 <= 1
 0 <= x164 <= 1
 0 <= x165 <= 1
 0 <= x166 <= 1
 0 <= x167 <= 1
 0 <= x168 <= 1
 0 <= x169 <= 1
 0 <= x170 <= 1
 0 <= x171 <= 1
 0 <= x172 <= 1
 0 <= x173 <= 1
 0 <= x174 <= 1
 0 <= x175 <= 1
 0 <= x176 <= 1
 0 <= x177 <= 1
 0 <= x178 <= 1
 0 <= x179 <= 1
 0 <= x180 <= 1
 0 <= x181 <= 1
 0 <= x182 <= 1
 0 <= x183 <= 1
 0 <= x184 <= 1
 0 <= x185 <= 1
 0 <= x186 <= 1
 0 <= x187 <= 1
 0 <= x188 <= 1
 0 <= x189 <= 1
 0 <= x190 <= 1
 0 <= x191 <= 1
 0 <= x192 <= 1
 0 <= x193 <= 1
 0 <= x194 <= 1
 0 <= x195 <= 1
 0 <= x196 <= 1
 0 <= x197 <= 1
 0 <= x198 <= 1
 0 <= x199 <= 1
 0 <= x200 <= 1
 0 <= x201 <= 1
 0 <= x202 <= 1
 0 <= x203 <= 1
 0 <= x204 <= 1
 0 <= x205 <= 1
 0 <= x206 <= 1
 0 <= x207 <= 1
 0 <= x208 <= 1
 0 <= x209 <= 1
 0 <= x210 <= 1
 0 <= x211 <= 1
 0 <= x212 <= 1
 0 <= x213 <= 1
 0 <= x214 <= 1
 0 <= x215 <= 1
 0 <= x216 <= 1
 0 <= x217 <= 1
 0 <= x218 <= 1
 0 <= x219 <= 1
 0 <= x220 <= 1
 0 <= x221 <= 1
 0 <= x222 <= 1
 0 <= x223 <= 1
 0 <= x224 <= 1
 0 <= x225 <= 1
 0 <= x226 <= 1
 0 <= x227 <= 1
 0 <= x228 <= 1
 0 <= x229 <= 1
 0 <= x230 <= 1
 0 <= x231 <= 1
 0 <= x232 <= 1
 0 <= x233 <= 1
 0 <= x234 <= 1
 0 <= x235 <= 1
 0 <= x236 <= 1
 0 <= x237 <= 1
 0 <= x238 <= 1
 0 <= x239 <= 1
 0 <= x240 <= 1
 0 <= x241 <= 1
 0 <= x242 <= 1
 0 <= x243 <= 1
 0 <= x244 <= 1
 0 <= x245 <= 1
 0 <= x246 <= 1
 0 <= x247 <= 1
 0 <= x248 <= 1
 0 <= x249 <= 1
 0 <= x250 <= 1
 0 <= x251 <= 1
 0 <= x252 <= 1
 0 <= x253 <= 1
 0 <= x254 <= 1
 0 <= x255 <= 1
 0 <= x256 <= 1
 0 <= x257 <= 1
 0 <= x258 <= 1
 0 <= x259 <= 1
 0 <= x260 <= 1
 0 <= x261 <= 1
 0 <= x262 <= 1
 0 <= x263 <= 1
 0 <= x264 <= 1
 0 <= x265 <= 1
 0 <= x266 <= 1
 0 <= x267 <= 1
 0 <= x268 <= 1
 0 <= x269 <= 1
 0 <= x270 <= 1
 0 <= x271 <= 1
 0 <= x272 <= 1
 0 <= x273 <= 1
 0 <= x274 <= 1
 0 <= x275 <= 1
 0 <= x276 <= 1
 0 <= x277 <= 1
 0 <= x278 <= 1
 0 <= x279 <= 1
 0 <= x280 <= 1
 0 <= x281 <= 1
 0 <= x282 <= 1
 0 <= x283 <= 1
 0 <= x284 <= 1
 0 <= x285 <= 1
 0 <= x286 <= 1
 0 <= x287 <= 1
 0 <= x288 <= 1
 0 <= x289 <= 1
 0 <= x290 <= 1
 0 <= x291 <= 1
 0 <= x292 <= 1
 0 <= x293 <= 1
 0 <= x294 <= 1
 0 <= x295 <= 1
 0 <= x296 <= 1
 0 <= x297 <= 1
 0 <= x298 <= 1
 0 <= x299 <= 1
 0 <= x300 <= 1
 0 <= x301 <= 1
 0 <= x302 <= 1
 0 <= x303 <= 1
 0 <= x304 <= 1
 0 <= x305 <= 1
 0 <= x306 <= 1
 0 <= x307 <= 1
 0 <= x308 <= 1
 0 <= x309 <= 1
 0 <= x310 <= 1
 0 <= x311 <= 1
 0 <= x312 <= 1
 0 <= x313 <= 1
 0 <= x314 <= 1
 0 <= x315 <= 1
 0 <= x316 <= 1
 0 <= x317 <= 1
 0 <= x318 <= 1
 0 <= x319 <= 1
 0 <= x320 <= 1
 0 <= x321 <= 1
 0 <= x322 <= 1
 0 <= x323 <= 1
 0 <= x324 <= 1
 0 <= x325 <= 1
 0 <= x326 <= 1
 0 <= x327 <= 1
 0 <= x328 <= 1
 0 <= x329 <= 1
 0 <= x330 <= 1
 0 <= x331 <= 1
 0 <= x332 <= 1
 0 <= x333 <= 1
 0 <= x334 <= 1
 0 <= x335 <= 1
 0 <= x336 <= 1
 0 <= x337 <= 1
 0 <= x338 <= 1
 0 <= x339 <= 1
 0 <= x340 <= 1
 0 <= x341 <= 1
 0 <= x342 <= 1
 0 <= x343 <= 1
 0 <= x344 <= 1
 0 <= x345 <= 1
 0 <= x346 <= 1
 0 <= x347 <= 1
 0 <= x348 <= 1
 0 <= x349 <= 1
 0 <= x350 <= 1
 0 <= x351 <= 1
 0 <= x352 <= 1
 0 <= x353 <= 1
 0 <= x354 <= 1
 0 <= x355 <= 1
 0 <= x356 <= 1
 0 <= x357 <= 1
 0 <= x358 <= 1
 0 <= x359 <= 1
 0 <= x360 <= 1
 0 <= x361 <= 1
 0 <= x362 <= 1
 0 <= x363 <= 1
 0 <= x364 <= 1
 0 <= x365 <= 1
 0 <= x366 <= 1
 0 <= x367 <= 1
 0 <= x368 <= 1
 0 <= x369 <= 1
 0 <= x370 <= 1
 0 <= x371 <= 1
 0 <= x372 <= 1
 0 <= x373 <= 1
 0 <= x374 <= 1
 0 <= x375 <= 1
 0 <= x376 <= 1
 0 <= x377 <= 1
 0 <= x378 <= 1
 0 <= x379 <= 1
 0 <= x380 <= 1
 0 <= x381 <= 1
 0 <= x382 <= 1
 0 <= x383 <= 1
 0 <= x384 <= 1
 0 <= x385 <= 1
 0 <= x386 <= 1
 0 <= x387 <= 1
 0 <= x388 <= 1
 0 <= x389 <= 1
 0 <= x390 <= 1
 0 <= x391 <= 1
 0 <= x392 <= 1
 0 <= x393 <= 1
 0 <= x394 <= 1
 0 <= x395 <= 1
 0 <= x396 <= 1
 0 <= x397 <= 1
 0 <= x398 <= 1
 0 <= x399 <= 1
 0 <= x400 <= 1
 0 <= x401 <= 1
 0 <= x402 <= 1
 0 <= x403 <= 1
 0 <= x404 <= 1
 0 <= x405 <= 1
 0 <= x406 <= 1
 0 <= x407 <= 1
 0 <= x408 <= 1
 0 <= x409 <= 1
 0 <= x410 <= 1
 0 <= x411 <= 1
 0 <= x412 <= 1
 0 <= x413 <= 1
 0 <= x414 <= 1
 0 <= x415 <= 1
 0 <= x416 <= 1
 0 <= x417 <= 1
 0 <= x418 <= 1
 0 <= x419 <= 1
 0 <= x420 <= 1
 0 <= x421 <= 1
 0 <= x422 <= 1
 0 <= x423 <= 1
 0 <= x424 <= 1
 0 <= x425 <= 1
 0 <= x426 <= 1
 0 <= x427 <= 1
 0 <= x428 <= 1
 0 <= x429 <= 1
 0 <= x430 <= 1
 0 <= x431 <= 1
 0 <= x432 <= 1
 0 <= x433 <= 1
 0 <= x434 <= 1
 0 <= x435 <= 1
 0 <= x436 <= 1
 1 <= x437 <= 9
 1 <= x438 <= 9
 1 <= x439 <= 9
 1 <= x440 <= 9
 1 <= x441 <= 9
 1 <= x442 <= 9
 1 <= x443 <= 9
 1 <= x444 <= 9
 1 <= x445 <= 9
 1 <= x446 <= 9
 1 <= x447 <= 9
 1 <= x448 <= 9
 1 <= x449 <= 9
 1 <= x450 <= 9
 1 <= x451 <= 9
 1 <= x452 <= 9
 1 <= x453 <= 9
 1 <= x454 <= 9
 1 <= x455 <= 9
 1 <= x456 <= 9
 1 <= x457 <= 9
 1 <= x458 <= 9
 1 <= x459 <= 9
 1 <= x460 <= 9
 1 <= x461 <= 9
 1 <= x462 <= 9
 1 <= x463 <= 9
 1 <= x464 <= 9
 1 <= x465 <= 9
 1 <= x466 <= 9
 1 <= x467 <= 9
 1 <= x468 <= 9
 1 <= x469 <= 9
 1 <= x470 <= 9
 1 <= x471 <= 9
 1 <= x472 <= 9
End
